language ESSENCE' 1.0
$ minion Nodes: 29
$ minion TotalTime: 0.004287
$ Savile Row TotalTime: 0.627
letting x_SetExplicitVarSize_tuple2_tuple2 be [4, 4, 4, 4, 4, 4, 4, 4;int(1..8)]
letting x_SetExplicitVarSize_tuple2_tuple1 be [2, 2, 2, 2, 2, 2, 2, 2;int(1..8)]
letting x_SetExplicitVarSize_tuple1 be [false, false, false, false, false, false, true, true;int(1..8)]
letting x_SetExplicitVarSize_tuple2_tuple3 be [6, 6, 6, 6, 6, 6, 6, 7;int(1..8)]
